1 51 2
-78 -324 -848 -107 -402 -846 -580 -703 -106 -248 -951 -891 -927 -17 -800 -20 -491 -302 -54 -11 -948 -920 -828 -107 -511 -67 -102 -252 -886 -510 -922 -705 -524 -140 -138 -318 -750 -800 -39 -922 -623 -408 -956 -444 -846 -230 -353 -577 -903 -761 0 
-944 -644 -70 -978 -691 -179 -373 -233 -873 -675 -124 -61 -127 -974 -120 -899 -436 -764 -903 -999 -81 -60 -121 -974 -554 -891 -810 -793 -169 -399 -114 -306 -428 -785 -931 -627 -300 -244 -882 -97 -337 -561 -53 -584 -195 -814 -736 -521 -60 -335 0 
281 779 720 669 324 807 111 647 503 780 834 218 900 206 393 207 569 222 768 963 61 260 991 455 786 601 473 662 20 461 838 502 406 409 644 626 400 296 734 472 919 483 575 204 359 175 667 125 593 166 1 
12632 
